300
300 300
1 240 204
2 239 668
3 239 757
4 238 176
5 236 926
6 236 938
7 235 199
8 234 72
9 234 784
10 234 694
11 233 440
12 233 37
13 232 47
14 232 41
15 232 777
16 231 997
17 231 447
18 231 179
19 230 284
20 230 119
21 230 871
22 230 912
23 229 61
24 227 226
25 227 933
26 226 317
27 226 824
28 225 803
29 224 515
30 223 338
31 221 565
32 220 738
33 219 115
34 219 205
35 219 213
36 219 764
37 219 705
38 218 251
39 217 990
40 217 332
41 217 530
42 217 388
43 217 971
44 216 871
45 214 812
46 214 24
47 213 747
48 212 231
49 212 424
50 211 569
51 211 568
52 209 785
53 209 935
54 208 603
55 208 423
56 208 601
57 208 904
58 207 623
59 207 532
60 204 976
61 204 564
62 203 296
63 202 343
64 201 345
65 201 898
66 201 947
67 200 918
68 200 923
69 198 770
70 198 917
71 198 111
72 197 862
73 197 425
74 197 796
75 196 932
76 196 34
77 196 13
78 195 70
79 194 478
80 193 483
81 193 853
82 191 732
83 190 385
84 189 677
85 189 881
86 188 7
87 188 585
88 188 215
89 187 244
90 187 930
91 186 639
92 186 94
93 186 391
94 186 863
95 185 802
96 184 717
97 183 959
98 183 880
99 181 417
100 179 714
101 178 249
102 178 281
103 177 584
104 176 900
105 176 499
106 175 498
107 175 634
108 174 445
109 173 249
110 173 388
111 172 976
112 172 945
113 171 462
114 171 997
115 171 54
116 171 366
117 171 583
118 171 156
119 170 151
120 168 835
121 167 364
122 167 561
123 166 440
124 166 840
125 165 976
126 164 296
127 163 317
128 162 531
129 162 347
130 162 269
131 161 38
132 160 432
133 160 729
134 159 767
135 159 659
136 159 823
137 158 191
138 158 251
139 157 39
140 157 161
141 157 545
142 156 482
143 155 138
144 155 446
145 154 333
146 154 940
147 154 610
148 153 407
149 153 805
150 152 901
151 151 639
152 150 165
153 149 799
154 148 269
155 148 239
156 147 303
157 147 103
158 147 154
159 146 520
160 146 568
161 144 583
162 144 704
163 144 648
164 142 920
165 142 360
166 140 67
167 140 854
168 140 617
169 138 765
170 137 953
171 137 529
172 136 235
173 136 639
174 133 739
175 131 87
176 131 655
177 130 596
178 129 868
179 128 125
180 128 396
181 127 675
182 126 674
183 126 857
184 126 674
185 125 235
186 123 416
187 123 997
188 123 311
189 123 469
190 120 412
191 120 948
192 119 329
193 119 880
194 117 18
195 117 691
196 116 185
197 116 467
198 114 663
199 114 845
200 113 851
201 113 823
202 112 54
203 111 708
204 110 31
205 109 880
206 108 860
207 107 43
208 107 940
209 104 661
210 104 795
211 104 133
212 103 898
213 102 768
214 102 304
215 101 847
216 100 662
217 100 862
218 98 824
219 97 486
220 96 411
221 95 328
222 94 819
223 94 849
224 93 41
225 93 766
226 92 237
227 91 931
228 91 520
229 89 713
230 87 154
231 87 211
232 87 567
233 86 703
234 86 854
235 85 214
236 84 351
237 80 242
238 78 407
239 78 992
240 77 729
241 77 965
242 77 25
243 76 818
244 76 338
245 73 104
246 73 89
247 71 41
248 71 299
249 68 445
250 68 492
251 67 735
252 66 1
253 66 678
254 66 482
255 65 598
256 63 777
257 62 116
258 61 927
259 61 292
260 61 952
261 60 812
262 57 531
263 57 125
264 56 970
265 54 380
266 53 729
267 52 722
268 52 66
269 52 868
270 51 23
271 51 695
272 51 355
273 47 610
274 47 555
275 46 399
276 45 456
277 45 223
278 44 919
279 44 379
280 41 213
281 40 29
282 40 509
283 40 384
284 39 905
285 39 667
286 38 581
287 37 341
288 37 624
289 36 657
290 35 590
291 35 817
292 35 618
293 32 543
294 32 642
295 32 15
296 31 248
297 31 132
298 31 987
299 31 220
300 30 948
